% Generado automaticamente desde C:/Users/andres/Desktop/SEPTIMO SEMESTRE/ADAII/proyecto_final/Proyecto-Optimizacion-ADA2/BateriaPruebas_2025_2_P2-txt/Prueba27.txt

n = 250;
m = 3;
ct = 120.0;
maxMovs = 150.0;
v = [0.18, 0.392, 0.622];
p = [70, 109, 71];
s = [| 20, 25, 25 | 74, 35, 0 | 29, 27, 15 |];
